c turning on binary mode checking
c parsing input formula with 259840 variables and 1039914 clauses
c finished parsing, read 31301 bytes from proof file
c detected empty clause; start verification via backward checking
c 891 of 1039914 clauses in core                            
c 48 of 5724 lemmas in core using 6342 resolution steps
c 0 RAT lemmas in core; 32 redundant literals in core lemmas
s VERIFIED
c verification time: 1.114 seconds
